4 10 100 1 2
0 200
 1 35.00 35.00 0.00 0.00 0.00 0 0 0 230
 2 41.00 49.00 10.00 10.00 18.00 1 1 1 130 201
 3 35.00 17.00 10.00 7.00 10.00 1 1 1 20 89
 4 55.00 45.00 10.00 13.00 13.00 1 1 1 106 135
 5 55.00 20.00 10.00 19.00 18.00 1 1 1 71 195
 6 15.00 30.00 10.00 26.00 2.00 1 1 1 20 107
 7 25.00 30.00 10.00 3.00 5.00 1 1 1 54 153
 8 20.00 50.00 10.00 5.00 10.00 1 1 1 66 105
 9 10.00 43.00 10.00 9.00 36.00 1 1 1 61 138
 10 55.00 60.00 10.00 16.00 20.00 1 1 1 53 150
 11 30.00 60.00 10.00 16.00 21.00 1 1 1 101 156
 12 20.00 65.00 10.00 12.00 26.00 1 1 1 33 152
 13 50.00 35.00 10.00 19.00 3.00 1 1 1 38 97
 14 30.00 25.00 10.00 23.00 18.00 1 1 1 70 208
 15 15.00 10.00 10.00 20.00 17.00 1 1 1 32 137
 16 30.00 5.00 10.00 8.00 5.00 1 1 1 30 154
 17 10.00 20.00 10.00 19.00 9.00 1 1 1 54 105
 18 5.00 30.00 10.00 2.00 15.00 1 1 1 51 189
 19 20.00 40.00 10.00 12.00 9.00 1 1 1 77 106
 20 15.00 60.00 10.00 17.00 20.00 1 1 1 53 108
 21 45.00 65.00 10.00 9.00 36.00 1 1 1 109 152
 22 45.00 20.00 10.00 11.00 5.00 1 1 1 37 96
 23 45.00 10.00 10.00 18.00 6.00 1 1 1 59 144
 24 55.00 5.00 10.00 29.00 9.00 1 1 1 36 155
 25 65.00 35.00 10.00 3.00 6.00 1 1 1 118 190
 26 65.00 20.00 10.00 6.00 19.00 1 1 1 47 186
 27 45.00 30.00 10.00 17.00 6.00 1 1 1 117 156
 28 35.00 40.00 10.00 16.00 9.00 1 1 1 5 156
 29 41.00 37.00 10.00 16.00 19.00 1 1 1 8 79
 30 64.00 42.00 10.00 9.00 17.00 1 1 1 37 98
 31 40.00 60.00 10.00 21.00 18.00 1 1 1 28 123
 32 31.00 52.00 10.00 27.00 16.00 1 1 1 24 85
 33 35.00 69.00 10.00 23.00 26.00 1 1 1 116 175
 34 53.00 52.00 10.00 11.00 14.00 1 1 1 24 179
 35 65.00 55.00 10.00 14.00 20.00 1 1 1 100 143
 36 63.00 65.00 10.00 8.00 11.00 1 1 1 50 178
 37 2.00 60.00 10.00 5.00 11.00 1 1 1 41 178
 38 20.00 20.00 10.00 8.00 35.00 1 1 1 117 160
 39 5.00 5.00 10.00 16.00 14.00 1 1 1 42 145
 40 60.00 12.00 10.00 31.00 27.00 1 1 1 33 186
 41 40.00 25.00 10.00 9.00 8.00 1 1 1 51 128
 42 42.00 7.00 10.00 5.00 12.00 1 1 1 44 159
 43 24.00 12.00 10.00 5.00 11.00 1 1 1 25 172
 44 23.00 3.00 10.00 7.00 9.00 1 1 1 115 158
 45 11.00 14.00 10.00 18.00 12.00 1 1 1 31 138
 46 6.00 38.00 10.00 16.00 41.00 1 1 1 29 189
 47 2.00 48.00 10.00 1.00 9.00 1 1 1 93 150
 48 8.00 56.00 10.00 27.00 25.00 1 1 1 34 116
 49 13.00 52.00 10.00 36.00 16.00 1 1 1 125 192
 50 6.00 68.00 10.00 30.00 9.00 1 1 1 93 132
 51 47.00 47.00 10.00 13.00 1.00 1 1 1 105 152
 52 49.00 58.00 10.00 10.00 7.00 1 1 1 66 119
 53 27.00 43.00 10.00 9.00 15.00 1 1 1 25 88
 54 37.00 31.00 10.00 14.00 22.00 1 1 1 62 137
 55 57.00 29.00 10.00 18.00 13.00 1 1 1 121 168
 56 63.00 23.00 10.00 2.00 3.00 1 1 1 70 189
 57 53.00 12.00 10.00 6.00 8.00 1 1 1 81 188
 58 32.00 12.00 10.00 7.00 9.00 1 1 1 78 133
 59 36.00 26.00 10.00 18.00 23.00 1 1 1 79 210
 60 21.00 24.00 10.00 28.00 16.00 1 1 1 17 123
 61 17.00 34.00 10.00 3.00 19.00 1 1 1 130 201
 62 12.00 24.00 10.00 13.00 10.00 1 1 1 59 102
 63 24.00 58.00 10.00 19.00 16.00 1 1 1 25 164
 64 27.00 69.00 10.00 10.00 13.00 1 1 1 34 112
 65 15.00 77.00 10.00 9.00 13.00 1 1 1 46 165
 66 62.00 77.00 10.00 20.00 7.00 1 1 1 49 170
 67 49.00 73.00 10.00 25.00 27.00 1 1 1 77 179
 68 67.00 5.00 10.00 25.00 25.00 1 1 1 43 150
 69 56.00 39.00 10.00 36.00 23.00 1 1 1 82 198
 70 37.00 47.00 10.00 6.00 16.00 1 1 1 12 142
 71 37.00 56.00 10.00 5.00 31.00 1 1 1 21 198
 72 57.00 68.00 10.00 15.00 29.00 1 1 1 57 106
 73 47.00 16.00 10.00 25.00 28.00 1 1 1 22 110
 74 44.00 17.00 10.00 9.00 14.00 1 1 1 60 105
 75 46.00 13.00 10.00 8.00 8.00 1 1 1 73 195
 76 49.00 11.00 10.00 18.00 6.00 1 1 1 46 101
 77 49.00 42.00 10.00 13.00 30.00 1 1 1 36 119
 78 53.00 43.00 10.00 14.00 1.00 1 1 1 65 200
 79 61.00 52.00 10.00 3.00 3.00 1 1 1 43 158
 80 57.00 48.00 10.00 23.00 12.00 1 1 1 58 135
 81 56.00 37.00 10.00 6.00 18.00 1 1 1 69 198
 82 55.00 54.00 10.00 26.00 3.00 1 1 1 87 110
 83 15.00 47.00 10.00 16.00 27.00 1 1 1 28 91
 84 14.00 37.00 10.00 11.00 23.00 1 1 1 21 97
 85 11.00 31.00 10.00 7.00 16.00 1 1 1 68 143
 86 16.00 22.00 10.00 41.00 5.00 1 1 1 74 117
 87 4.00 18.00 10.00 35.00 2.00 1 1 1 79 118
 88 28.00 18.00 10.00 26.00 25.00 1 1 1 84 111
 89 26.00 52.00 10.00 9.00 9.00 1 1 1 24 133
 90 26.00 35.00 10.00 15.00 11.00 1 1 1 128 211
 91 31.00 67.00 10.00 3.00 7.00 1 1 1 76 123
 92 15.00 19.00 10.00 1.00 5.00 1 1 1 130 194
 93 22.00 22.00 10.00 2.00 10.00 1 1 1 18 181
 94 18.00 24.00 10.00 22.00 3.00 1 1 1 41 199
 95 26.00 27.00 10.00 27.00 16.00 1 1 1 88 121
 96 25.00 24.00 10.00 20.00 7.00 1 1 1 14 83
 97 22.00 27.00 10.00 11.00 17.00 1 1 1 119 160
 98 25.00 21.00 10.00 12.00 19.00 1 1 1 122 153
 99 19.00 21.00 10.00 10.00 2.00 1 1 1 32 93
 100 20.00 26.00 10.00 9.00 26.00 1 1 1 38 137
 101 18.00 18.00 10.00 17.00 8.00 1 1 1 28 195
